FILENAME:   /home/mcs001/s132664/testsets/IP/miplib2017/qiu.mps.gz
SETTINGS:   settings_final_nopeek_norelabel_extend_norestarts
TIMELIMIT:  7200
OUTPUTNAME: final_miplib_symretope_if_extended_generating_set_cpx_v802__settings_final_nopeek_norelabel_extend_norestarts__0__
BINNAME:    bin/sbcs.linux.x86_64.gnu.opt.cpx
BASENAME:   qiu.mps.gz
SEED:       0
@01 /home/mcs001/s132664/testsets/IP/miplib2017/qiu.mps.gz ===========
@02 qiu.mps.gz
@03 1686649325
SCIP version 8.0.2 [precision: 8 byte] [memory: block] [mode: optimized] [LP solver: CPLEX 20.1.0.0] [GitHash: 5f0473c]
Copyright (C) 2002-2022 Konrad-Zuse-Zentrum fuer Informationstechnik Berlin (ZIB)

Symretope propagation methods - (c) Jasper van Doornmalen, Christopher Hojny.
[GitHash: 2fd0484]

reading parameter file <../settings/settings_final_nopeek_norelabel_extend_norestarts.set> ...

Changed settings:
limits/time = 7200
limits/restarts = 0
misc/usesymmetry = 1
constraints/orbisack/sepafreq = -1
constraints/symresack/sepafreq = -1
propagating/symmetry/addsymresacks = TRUE
propagating/symmetry/detectsubgroups = FALSE
propagating/symmetry/relabelsymretopes = 0
propagating/symmetry/extendgenerators = TRUE
propagating/symmetry/ofsymcomptiming = 0
constraints/symretope/sepafreq = -1
constraints/symretope/peek = FALSE


solving problem ...

original problem has 840 variables (48 bin, 0 int, 0 impl, 792 cont) and 1192 constraints
presolving:
(round 1, fast)       0 del vars, 0 del conss, 0 add conss, 792 chg bounds, 0 chg sides, 0 chg coeffs, 0 upgd conss, 0 impls, 0 clqs
(round 2, exhaustive) 0 del vars, 0 del conss, 0 add conss, 792 chg bounds, 0 chg sides, 0 chg coeffs, 528 upgd conss, 0 impls, 0 clqs
   (0.0s) probing cycle finished: starting next cycle
   (0.0s) symmetry computation started: requiring (bin +, int +, cont +), (fixed: bin -, int -, cont -)
   (0.0s) symmetry computation finished: 4 generators found (max: 1500, log10 of symmetry group size: 1.7)
(round 3, exhaustive) 0 del vars, 0 del conss, 9 add conss, 792 chg bounds, 0 chg sides, 0 chg coeffs, 528 upgd conss, 528 impls, 0 clqs
presolving (4 rounds: 4 fast, 3 medium, 3 exhaustive):
 0 deleted vars, 0 deleted constraints, 9 added constraints, 792 tightened bounds, 0 added holes, 0 changed sides, 0 changed coefficients
 528 implications, 0 cliques
presolved problem has 840 variables (48 bin, 0 int, 0 impl, 792 cont) and 1201 constraints
    528 constraints of type <varbound>
    664 constraints of type <linear>
      7 constraints of type <orbisack>
      2 constraints of type <symretope>
Presolving Time: 0.02

 time | node  | left  |LP iter|LP it/n|mem/heur|mdpt |vars |cons |rows |cuts |sepa|confs|strbr|  dualbound   | primalbound  |  gap   | compl. 
p 0.0s|     1 |     0 |    59 |     - |   locks|   0 | 840 |1201 |1203 |   0 |  0 |   0 |   0 |-9.200187e+03 | 3.173585e+03 |    Inf | unknown
i 0.0s|     1 |     0 |    59 |     - |  oneopt|   0 | 840 |1201 |1203 |   0 |  0 |   0 |   0 |-9.200187e+03 | 1.691143e+03 |    Inf | unknown
  0.1s|     1 |     0 |  1163 |     - |  9786k |   0 | 840 |1201 |1203 |   0 |  0 |   0 |   0 |-9.316389e+02 | 1.691143e+03 |    Inf | unknown
  0.1s|     1 |     0 |  1373 |     - |    10M |   0 | 840 |1202 |1204 |   1 |  1 |   1 |   0 |-8.982655e+02 | 1.691143e+03 |    Inf | unknown
  0.1s|     1 |     0 |  1444 |     - |    11M |   0 | 840 |1201 |1205 |   2 |  2 |   2 |   0 |-8.579352e+02 | 1.691143e+03 |    Inf | unknown
  0.1s|     1 |     0 |  1651 |     - |    11M |   0 | 840 |1201 |1208 |   5 |  3 |   2 |   0 |-8.104942e+02 | 1.691143e+03 |    Inf | unknown
  0.2s|     1 |     0 |  1781 |     - |    12M |   0 | 840 |1201 |1209 |   6 |  4 |   2 |   0 |-7.941373e+02 | 1.691143e+03 |    Inf | unknown
  0.2s|     1 |     0 |  2003 |     - |    12M |   0 | 840 |1202 |1211 |   8 |  5 |   3 |   0 |-7.827506e+02 | 1.691143e+03 |    Inf | unknown
  0.2s|     1 |     0 |  2108 |     - |    14M |   0 | 840 |1202 |1213 |  10 |  6 |   3 |   0 |-7.732838e+02 | 1.691143e+03 |    Inf | unknown
  0.3s|     1 |     0 |  2183 |     - |    16M |   0 | 840 |1202 |1214 |  11 |  7 |   3 |   0 |-7.715576e+02 | 1.691143e+03 |    Inf | unknown
  0.3s|     1 |     0 |  2292 |     - |    17M |   0 | 840 |1204 |1215 |  12 |  8 |   5 |   0 |-7.672871e+02 | 1.691143e+03 |    Inf | unknown
  0.4s|     1 |     0 |  2376 |     - |    18M |   0 | 840 |1204 |1218 |  15 |  9 |   5 |   0 |-7.645932e+02 | 1.691143e+03 |    Inf | unknown
  0.4s|     1 |     0 |  2527 |     - |    19M |   0 | 840 |1204 |1220 |  17 | 10 |   5 |   0 |-7.615924e+02 | 1.691143e+03 |    Inf | unknown
r 0.4s|     1 |     0 |  2936 |     - |intshift|   0 | 840 |1204 |1220 |  17 | 12 |   5 |   0 |-7.615924e+02 | 1.577109e+03 |    Inf | unknown
o 0.6s|     1 |     0 |  3780 |     - |feaspump|   0 | 840 |1204 |1220 |  17 | 12 |   5 |   0 |-7.615924e+02 | 7.088993e+02 |    Inf | unknown
 time | node  | left  |LP iter|LP it/n|mem/heur|mdpt |vars |cons |rows |cuts |sepa|confs|strbr|  dualbound   | primalbound  |  gap   | compl. 
L 0.6s|     1 |     0 |  3780 |     - |    alns|   0 | 840 |1206 |1220 |  17 | 12 |   7 |   0 |-7.615924e+02 | 4.020471e+02 |    Inf | unknown
  0.6s|     1 |     0 |  3780 |     - |    19M |   0 | 840 |1195 |1220 |  17 | 12 |   7 |   0 |-7.615924e+02 | 4.020471e+02 |    Inf | unknown
  0.6s|     1 |     0 |  3833 |     - |    19M |   0 | 840 |1195 |1214 |  20 | 13 |   7 |   0 |-7.612193e+02 | 4.020471e+02 |    Inf | unknown
  2.0s|     1 |     0 |  3833 |     - |    19M |   0 | 840 |1196 |1214 |  20 | 14 |   8 |  19 |-7.320293e+02 | 4.020471e+02 |    Inf | unknown
  3.3s|     1 |     0 |  3833 |     - |    19M |   0 | 840 |1196 |1214 |  20 | 16 |   8 |  47 |-7.320293e+02 | 4.020471e+02 |    Inf | unknown
  3.3s|     1 |     0 |  3861 |     - |    19M |   0 | 840 |1196 |1215 |  21 | 17 |   8 |  47 |-7.320293e+02 | 4.020471e+02 |    Inf | unknown
  3.3s|     1 |     2 |  3861 |     - |    19M |   0 | 840 |1196 |1215 |  21 | 18 |   8 |  47 |-7.320293e+02 | 4.020471e+02 |    Inf | unknown
d 5.2s|    15 |    14 |  6079 | 252.1 |pscostdi|  13 | 840 |1200 |1217 |   0 |  2 |  12 | 155 |-7.320293e+02 | 2.552518e+02 |    Inf |   0.29%
  7.4s|   100 |    61 | 13626 | 111.9 |    28M |  14 | 840 |1210 |1212 |  53 |  1 |  22 | 223 |-6.938706e+02 | 2.552518e+02 |    Inf |   2.72%
  8.9s|   200 |   135 | 23125 | 103.4 |    40M |  17 | 840 |1208 |1214 | 101 |  1 |  24 | 230 |-5.863975e+02 | 2.552518e+02 |    Inf |   3.02%
L 9.5s|   215 |    91 | 24835 | 104.1 |    rins|  18 | 840 |1206 |1210 | 104 |  1 |  24 | 230 |-5.863975e+02 | 1.250534e+02 |    Inf |   3.65%
r 9.8s|   241 |   117 | 27313 | 103.2 |ziroundi|  22 | 840 |1206 |1216 | 114 |  1 |  24 | 231 |-5.863975e+02 | 1.209543e+02 |    Inf |   3.65%
r 9.9s|   246 |   120 | 27443 | 101.6 |rounding|  27 | 840 |1206 |1216 | 114 |  0 |  24 | 231 |-5.863975e+02 | 1.209543e+02 |    Inf |   3.66%
r 9.9s|   248 |   116 | 27508 | 101.0 |rounding|  29 | 840 |1206 |1216 | 114 |  0 |  24 | 231 |-5.863975e+02 | 1.012021e+02 |    Inf |   3.90%
r 9.9s|   250 |   116 | 27513 | 100.3 |rounding|  30 | 840 |1206 |1216 | 114 |  0 |  24 | 231 |-5.863975e+02 | 9.351947e+01 |    Inf |   3.90%
 time | node  | left  |LP iter|LP it/n|mem/heur|mdpt |vars |cons |rows |cuts |sepa|confs|strbr|  dualbound   | primalbound  |  gap   | compl. 
*10.1s|   300 |   137 | 29172 |  89.0 |    LP  |  33 | 840 |1206 |1213 | 116 |  1 |  24 | 234 |-5.863975e+02 | 7.862542e+01 |    Inf |   4.04%
d10.2s|   323 |   156 | 30719 |  87.5 |fracdivi|  33 | 840 |1205 |1213 |   0 |  1 |  24 | 234 |-5.863975e+02 | 7.421920e+01 |    Inf |   4.32%
r10.5s|   359 |   137 | 32497 |  83.7 |rounding|  36 | 840 |1214 |1213 | 116 |  0 |  33 | 234 |-5.664936e+02 | 6.920286e+00 |    Inf |   4.84%
*10.5s|   363 |   130 | 32615 |  83.1 |    LP  |  36 | 840 |1214 |1213 | 116 |  1 |  33 | 234 |-5.664936e+02 | 3.191963e+00 |    Inf |   4.84%
*10.5s|   371 |   120 | 32770 |  81.7 |    LP  |  36 | 840 |1214 |1213 | 116 |  1 |  33 | 234 |-5.664936e+02 |-1.214257e+00 |  Large |   5.26%
 10.6s|   400 |   139 | 33575 |  77.8 |    41M |  36 | 840 |1214 |1213 | 116 |  0 |  33 | 235 |-5.664936e+02 |-1.214257e+00 |  Large |   5.26%
*11.0s|   491 |   148 | 36273 |  68.8 |    LP  |  36 | 840 |1217 |1213 | 116 |  1 |  36 | 235 |-5.251480e+02 |-5.620477e+00 |9243.48%|   5.79%
 11.1s|   500 |   145 | 36387 |  67.8 |    41M |  36 | 840 |1217 |1213 | 116 |  1 |  36 | 235 |-5.251480e+02 |-5.620477e+00 |9243.48%|   7.09%
r11.3s|   526 |   128 | 38098 |  67.7 |rounding|  36 | 840 |1217 |1216 | 121 |  0 |  37 | 235 |-5.175761e+02 |-2.329887e+01 |2121.46%|   8.97%
*11.4s|   545 |    89 | 39110 |  67.2 |    LP  |  36 | 840 |1220 |1216 | 121 |  1 |  40 | 235 |-4.883636e+02 |-1.328731e+02 | 267.54%|  10.51%
 11.6s|   600 |    90 | 40468 |  63.3 |    41M |  36 | 840 |1220 |1216 | 121 |  1 |  40 | 235 |-4.666904e+02 |-1.328731e+02 | 251.23%|  11.78%
 12.5s|   700 |   112 | 46848 |  63.4 |    41M |  36 | 840 |1225 |1215 | 140 |  0 |  45 | 235 |-4.640908e+02 |-1.328731e+02 | 249.27%|  13.37%
 13.0s|   800 |   116 | 49465 |  58.7 |    41M |  36 | 840 |1223 |1215 | 140 |  0 |  45 | 235 |-4.523932e+02 |-1.328731e+02 | 240.47%|  14.63%
 13.6s|   900 |   120 | 53540 |  56.7 |    41M |  36 | 840 |1223 |1213 | 142 |  0 |  47 | 235 |-4.325557e+02 |-1.328731e+02 | 225.54%|  16.26%
 14.0s|  1000 |   126 | 56315 |  53.8 |    41M |  36 | 840 |1220 |1215 | 142 |  1 |  47 | 235 |-4.220413e+02 |-1.328731e+02 | 217.63%|  17.45%
 time | node  | left  |LP iter|LP it/n|mem/heur|mdpt |vars |cons |rows |cuts |sepa|confs|strbr|  dualbound   | primalbound  |  gap   | compl. 
 15.2s|  1100 |   134 | 61732 |  53.9 |    44M |  36 | 840 |1225 |1223 | 187 |  0 |  52 | 235 |-4.160400e+02 |-1.328731e+02 | 213.11%|  19.32%
 16.0s|  1200 |   146 | 66345 |  53.2 |    47M |  36 | 840 |1227 |1215 | 204 |  0 |  55 | 235 |-4.084052e+02 |-1.328731e+02 | 207.36%|  20.63%
 16.9s|  1300 |   148 | 72240 |  53.6 |    47M |  36 | 840 |1232 |1216 | 218 |  0 |  60 | 235 |-3.980461e+02 |-1.328731e+02 | 199.57%|  21.79%
 18.2s|  1400 |   148 | 78028 |  54.0 |    49M |  36 | 840 |1234 |1215 | 250 |  1 |  62 | 235 |-3.924093e+02 |-1.328731e+02 | 195.33%|  23.99%
 18.7s|  1500 |   150 | 80836 |  52.2 |    49M |  36 | 840 |1237 |1215 | 262 |  0 |  65 | 235 |-3.652528e+02 |-1.328731e+02 | 174.89%|  26.37%
 19.7s|  1600 |   146 | 84934 |  51.5 |    51M |  36 | 840 |1237 |1222 | 294 |  1 |  66 | 235 |-3.513607e+02 |-1.328731e+02 | 164.43%|  29.66%
 20.1s|  1700 |   150 | 88173 |  50.4 |    51M |  36 | 840 |1240 |1216 | 294 |  0 |  69 | 235 |-3.440818e+02 |-1.328731e+02 | 158.96%|  31.91%
 20.8s|  1800 |   150 | 92086 |  49.8 |    51M |  36 | 840 |1238 |1214 | 309 |  3 |  71 | 235 |-3.275820e+02 |-1.328731e+02 | 146.54%|  34.41%
 21.8s|  1900 |   150 | 96186 |  49.3 |    51M |  36 | 840 |1242 |1215 | 335 |  1 |  76 | 235 |-3.267980e+02 |-1.328731e+02 | 145.95%|  36.30%
Restart triggered after 50 consecutive estimations that the remaining tree will be large
 22.4s|  2000 |   142 | 99502 |  48.5 |    53M |  36 | 840 |1242 |1217 | 350 |  1 |  77 | 235 |-3.249022e+02 |-1.328731e+02 | 144.52%|  37.73%
 24.1s|  2100 |   112 |104767 |  48.7 |    55M |  36 | 840 |1243 |1210 | 405 |  1 |  82 | 235 |-3.208934e+02 |-1.328731e+02 | 141.50%|  44.43%
 25.1s|  2200 |   102 |109110 |  48.5 |    55M |  36 | 840 |1244 |1210 | 426 |  1 |  86 | 235 |-2.954171e+02 |-1.328731e+02 | 122.33%|  54.95%
 26.4s|  2300 |    64 |113518 |  48.3 |    55M |  36 | 840 |1248 |1211 | 454 |  0 |  93 | 235 |-2.870920e+02 |-1.328731e+02 | 116.06%|  67.78%
 27.7s|  2400 |    38 |117894 |  48.1 |    56M |  36 | 840 |1248 |1210 | 484 |  0 |  97 | 235 |-2.439089e+02 |-1.328731e+02 |  83.57%|  78.76%

SCIP Status        : problem is solved [optimal solution found]
Solving Time (sec) : 28.41
Solving Nodes      : 2476
Primal Bound       : -1.32873136947000e+02 (460 solutions)
Dual Bound         : -1.32873136947000e+02
Gap                : 0.00 %
SCIP Status        : problem is solved [optimal solution found]
Total Time         :      28.41
  solving          :      28.41
  presolving       :       0.02 (included in solving)
  reading          :       0.00
  copying          :       0.02 (7 #copies) (minimal 0.00, maximal 0.00, average 0.00)
Original Problem   :
  Problem name     : qiu
  Variables        : 840 (48 binary, 0 integer, 0 implicit integer, 792 continuous)
  Constraints      : 1192 initial, 1192 maximal
  Objective        : minimize, 312 non-zeros (abs.min = 16.947, abs.max = 114.034)
Presolved Problem  :
  Problem name     : t_qiu
  Variables        : 840 (48 binary, 0 integer, 0 implicit integer, 792 continuous)
  Constraints      : 1201 initial, 1249 maximal
  Objective        : minimize, 312 non-zeros (abs.min = 16.947, abs.max = 114.034)
  Nonzeros         : 3668 constraint, 0 clique table
Presolvers         :   ExecTime  SetupTime  Calls  FixedVars   AggrVars   ChgTypes  ChgBounds   AddHoles    DelCons    AddCons   ChgSides   ChgCoefs
  boundshift       :       0.00       0.00      0          0          0          0          0          0          0          0          0          0
  convertinttobin  :       0.00       0.00      0          0          0          0          0          0          0          0          0          0
  domcol           :       0.00       0.00      2          0          0          0          0          0          0          0          0          0
  dualagg          :       0.00       0.00      0          0          0          0          0          0          0          0          0          0
  dualcomp         :       0.00       0.00      2          0          0          0          0          0          0          0          0          0
  dualinfer        :       0.00       0.00      0          0          0          0          0          0          0          0          0          0
  dualsparsify     :       0.00       0.00      1          0          0          0          0          0          0          0          0          0
  gateextraction   :       0.00       0.00      0          0          0          0          0          0          0          0          0          0
  implics          :       0.00       0.00      3          0          0          0          0          0          0          0          0          0
  inttobinary      :       0.00       0.00      0          0          0          0          0          0          0          0          0          0
  qpkktref         :       0.00       0.00      0          0          0          0          0          0          0          0          0          0
  redvub           :       0.00       0.00      0          0          0          0          0          0          0          0          0          0
  sparsify         :       0.00       0.00      1          0          0          0          0          0          0          0          0          0
  stuffing         :       0.00       0.00      0          0          0          0          0          0          0          0          0          0
  trivial          :       0.00       0.00      4          0          0          0          0          0          0          0          0          0
  tworowbnd        :       0.00       0.00      0          0          0          0          0          0          0          0          0          0
  dualfix          :       0.00       0.00      4          0          0          0          0          0          0          0          0          0
  genvbounds       :       0.00       0.00      0          0          0          0          0          0          0          0          0          0
  probing          :       0.00       0.00      1          0          0          0          0          0          0          0          0          0
  pseudoobj        :       0.00       0.00      0          0          0          0          0          0          0          0          0          0
  symmetry         :       0.00       0.00      1          0          0          0          0          0          0          9          0          0
  vbounds          :       0.00       0.00      0          0          0          0          0          0          0          0          0          0
  varbound         :       0.00       0.00      4          0          0          0          0          0          0          0          0          0
  setppc           :       0.00       0.00      0          0          0          0          0          0          0          0          0          0
  linear           :       0.01       0.00      7          0          0          0        792          0          0          0          0          0
  orbisack         :       0.00       0.00      1          0          0          0          0          0          0          0          0          0
  symretope        :       0.00       0.00      1          0          0          0          0          0          0          0          0          0
  logicor          :       0.00       0.00      0          0          0          0          0          0          0          0          0          0
  benders          :       0.00       0.00      0          0          0          0          0          0          0          0          0          0
  components       :       0.00       0.00      1          0          0          0          0          0          0          0          0          0
  root node        :          -          -      -          2          -          -         32          -          -          -          -          -
Constraints        :     Number  MaxNumber  #Separate #Propagate    #EnfoLP    #EnfoRelax  #EnfoPS    #Check   #ResProp    Cutoffs    DomReds       Cuts    Applied      Conss   Children
  benderslp        :          0          0          0          0       1363          0          0        492          0          0          0          0          0          0          0
  integral         :          0          0          0          0       1363          0          0        492          0          0        147          0          0         10       2692
  varbound         :        528        528         14       5842          5          0          0        486         21          1      16910          0          0          0          0
  setppc           :          0+         1          2         13          0          0          0          0          1          0          0          1          0          0          0
  linear           :        664+       702         14       5843          5          0          0        459          4         11      16099          0          0          0          0
  orbisack         :          7          7          0        152          0          0          0        455         25          9        154          0          0          0          0
  symretope        :          2          2          0        365          0          0          0        455          2          3         53          0          0          0          0
  logicor          :          0+        21         10        578          0          0          0          0          6          6         86          0          0          0          0
  benders          :          0          0          0          0          5          0          0        456          0          0          0          0          0          0          0
  countsols        :          0          0          0          0          5          0          0        456          0          0          0          0          0          0          0
  components       :          0          0          0          0          0          0          0          0          0          0          0          0          0          0          0
Constraint Timings :  TotalTime  SetupTime   Separate  Propagate     EnfoLP     EnfoPS     EnfoRelax   Check    ResProp    SB-Prop
  benderslp        :       0.00       0.00       0.00       0.00       0.00       0.00       0.00       0.00       0.00       0.00
  integral         :       5.44       0.00       0.00       0.00       5.44       0.00       0.00       0.00       0.00       0.00
  varbound         :       0.11       0.00       0.00       0.07       0.00       0.00       0.00       0.03       0.00       0.01
  setppc           :       0.00       0.00       0.00       0.00       0.00       0.00       0.00       0.00       0.00       0.00
  linear           :       0.10       0.00       0.01       0.07       0.00       0.00       0.00       0.01       0.00       0.01
  orbisack         :       0.00       0.00       0.00       0.00       0.00       0.00       0.00       0.00       0.00       0.00
  symretope        :       0.00       0.00       0.00       0.00       0.00       0.00       0.00       0.00       0.00       0.00
  logicor          :       0.00       0.00       0.00       0.00       0.00       0.00       0.00       0.00       0.00       0.00
  benders          :       0.00       0.00       0.00       0.00       0.00       0.00       0.00       0.00       0.00       0.00
  countsols        :       0.00       0.00       0.00       0.00       0.00       0.00       0.00       0.00       0.00       0.00
  components       :       0.00       0.00       0.00       0.00       0.00       0.00       0.00       0.00       0.00       0.00
Propagators        : #Propagate   #ResProp    Cutoffs    DomReds
  dualfix          :          5          0          0          0
  genvbounds       :          0          0          0          0
  nlobbt           :          0          0          0          0
  obbt             :          0          0          0          0
  probing          :          0          0          0          0
  pseudoobj        :       5430          0          0          0
  redcost          :       3106          0          0          0
  rootredcost      :         15          0          0          0
  symmetry         :          0          0          0          0
  vbounds          :       2510          0          0          0
Propagator Timings :  TotalTime  SetupTime   Presolve  Propagate    ResProp    SB-Prop
  dualfix          :       0.00       0.00       0.00       0.00       0.00       0.00
  genvbounds       :       0.00       0.00       0.00       0.00       0.00       0.00
  nlobbt           :       0.00       0.00       0.00       0.00       0.00       0.00
  obbt             :       0.00       0.00       0.00       0.00       0.00       0.00
  probing          :       0.00       0.00       0.00       0.00       0.00       0.00
  pseudoobj        :       0.05       0.00       0.00       0.05       0.00       0.00
  redcost          :       0.01       0.00       0.00       0.01       0.00       0.00
  rootredcost      :       0.00       0.00       0.00       0.00       0.00       0.00
  symmetry         :       0.01       0.00       0.00       0.00       0.00       0.00
  vbounds          :       0.00       0.00       0.00       0.00       0.00       0.00
Orbital fixing     :
  vars fixed to 0  :          0
  vars fixed to 1  :          0
Conflict Analysis  :       Time      Calls    Success    DomReds  Conflicts   Literals    Reconvs ReconvLits   Dualrays   Nonzeros   LP Iters   (pool size: [10000,10000])
  propagation      :       0.00         21         21          -         25        3.8          0        0.0          -          -          -
  infeasible LP    :       0.00          4          0          -          0        0.0          0        0.0          2       24.5          0
  bound exceed. LP :       0.15        110         75          -          0        0.0          0        0.0         75       67.1        914
  strong branching :       0.00          0          0          -          0        0.0          0        0.0          -          -          0
  pseudo solution  :       0.00          0          0          -          0        0.0          0        0.0          -          -          -
  applied globally :       0.00          -          -          0         23        3.7          -          -         77          -          -
  applied locally  :          -          -          -          0          0        0.0          -          -          0          -          -
Separators         :   ExecTime  SetupTime      Calls  RootCalls    Cutoffs    DomReds  FoundCuts ViaPoolAdd  DirectAdd    Applied ViaPoolApp  DirectApp      Conss
  cut pool         :       1.30          -        864         28          -          -       9835       5801          -          -          -          -          -    (maximal pool size:       2155)
  aggregation      :       0.97       0.00        448         14          0          0          3          0          0          0          0          0          0
  > cmir           :          -          -          -          -          -          -          -          0          0          0          0          0          -
  > flowcover      :          -          -          -          -          -          -          -          0          0          0          0          0          -
  > knapsackcover  :          -          -          -          -          -          -          -          0          0          0          0          0          -
  cgmip            :       0.00       0.00          0          0          0          0          0          0          0          0          0          0          0
  clique           :       0.00       0.00         14         14          0          0          0          0          0          0          0          0          0
  closecuts        :       0.00       0.00          0          0          0          0          0          0          0          0          0          0          0
  convexproj       :       0.00       0.00          0          0          0          0          0          0          0          0          0          0          0
  disjunctive      :       0.00       0.00          0          0          0          0          0          0          0          0          0          0          0
  eccuts           :       0.00       0.00          0          0          0          0          0          0          0          0          0          0          0
  gauge            :       0.00       0.00          0          0          0          0          0          0          0          0          0          0          0
  gomory           :       1.48       0.00        383         10          0          0       9829       5798          0        490        490          0          0
  > gomorymi       :          -          -          -          -          -          -          -       5798          0        490        490          0          -
  > strongcg       :          -          -          -          -          -          -          -          0          0          0          0          0          -
  impliedbounds    :       0.02       0.00        448         14          0          0          1          1          0          1          1          0          0
  interminor       :       0.00       0.00          0          0          0          0          0          0          0          0          0          0          0
  intobj           :       0.00       0.00          0          0          0          0          0          0          0          0          0          0          0
  mcf              :       0.01       0.00          1          1          0          0          0          0          0          0          0          0          0
  minor            :       0.00       0.00          0          0          0          0          0          0          0          0          0          0          0
  mixing           :       0.02       0.00        448         14          0          0          0          0          0          0          0          0          0
  oddcycle         :       0.00       0.00          0          0          0          0          0          0          0          0          0          0          0
  rapidlearning    :       0.00       0.00          0          0          0          0          0          0          0          0          0          0          0
  rlt              :       0.00       0.00         10         10          0          0          0          0          0          0          0          0          0
  zerohalf         :       0.09       0.00        387         14          0          0          2          2          0          2          2          0          0
Cutselectors       :   ExecTime  SetupTime      Calls  RootCalls   Selected     Forced   Filtered  RootSelec   RootForc   RootFilt 
  hybrid           :       0.02       0.00        378         12        493          0       5309         21          0        135
Pricers            :   ExecTime  SetupTime      Calls       Vars
  problem variables:       0.00          -          0          0
Branching Rules    :   ExecTime  SetupTime   BranchLP  BranchExt   BranchPS    Cutoffs    DomReds       Cuts      Conss   Children
  allfullstrong    :       0.00       0.00          0          0          0          0          0          0          0          0
  cloud            :       0.00       0.00          0          0          0          0          0          0          0          0
  distribution     :       0.00       0.00          0          0          0          0          0          0          0          0
  fullstrong       :       0.00       0.00          0          0          0          0          0          0          0          0
  inference        :       0.00       0.00          0          0          0          0          0          0          0          0
  leastinf         :       0.00       0.00          0          0          0          0          0          0          0          0
  lookahead        :       0.00       0.00          0          0          0          0          0          0          0          0
  mostinf          :       0.00       0.00          0          0          0          0          0          0          0          0
  multaggr         :       0.00       0.00          0          0          0          0          0          0          0          0
  nodereopt        :       0.00       0.00          0          0          0          0          0          0          0          0
  pscost           :       0.00       0.00          0          0          0          0          0          0          0          0
  random           :       0.00       0.00          0          0          0          0          0          0          0          0
  relpscost        :       5.44       0.00       1358          0          0          0        147          0         10       2692
  vanillafullstrong:       0.00       0.00          0          0          0          0          0          0          0          0
Primal Heuristics  :   ExecTime  SetupTime      Calls      Found       Best
  LP solutions     :       0.00          -          -          5          5
  relax solutions  :       0.00          -          -          0          0
  pseudo solutions :       0.00          -          -          0          0
  strong branching :       0.00          -          -          0          0
  actconsdiving    :       0.00       0.00          0          0          0
  adaptivediving   :       0.06       0.00          8          0          0
  alns             :       0.07       0.00          5          1          1
  bound            :       0.00       0.00          0          0          0
  clique           :       0.00       0.00          0          0          0
  coefdiving       :       0.00       0.00          0          0          0
  completesol      :       0.00       0.00          0          0          0
  conflictdiving   :       0.04       0.00          5          0          0
  crossover        :       0.00       0.00          0          0          0
  dins             :       0.00       0.00          0          0          0
  distributiondivin:       0.12       0.00          4          0          0
  dps              :       0.00       0.00          0          0          0
  dualval          :       0.00       0.00          0          0          0
  farkasdiving     :       0.00       0.00          0          0          0
  feaspump         :       0.12       0.00          1          1          1
  fixandinfer      :       0.00       0.00          0          0          0
  fracdiving       :       0.05       0.00          4          1          1
  gins             :       0.00       0.00          0          0          0
  guideddiving     :       0.02       0.00          4          0          0
  indicator        :       0.00       0.00          0          0          0
  intdiving        :       0.00       0.00          0          0          0
  intshifting      :       0.13       0.00         15          1          1
  linesearchdiving :       0.04       0.00          4          0          0
  localbranching   :       0.00       0.00          0          0          0
  locks            :       0.01       0.00          1          1          1
  lpface           :       0.00       0.00          0          0          0
  mpec             :       0.00       0.00          0          0          0
  multistart       :       0.00       0.00          0          0          0
  mutation         :       0.00       0.00          0          0          0
  nlpdiving        :       0.00       0.00          0          0          0
  objpscostdiving  :       0.39       0.00          3          7          0
  octane           :       0.00       0.00          0          0          0
  ofins            :       0.00       0.00          0          0          0
  oneopt           :       0.00       0.00         16          1          1
  padm             :       0.00       0.00          0          0          0
  proximity        :       0.00       0.00          0          0          0
  pscostdiving     :       0.04       0.00          4          1          1
  randrounding     :       0.02       0.00         37          0          0
  rens             :       0.00       0.00          0          0          0
  reoptsols        :       0.00       0.00          0          0          0
  repair           :       0.00       0.00          0          0          0
  rins             :       0.51       0.00          2          2          1
  rootsoldiving    :       0.17       0.00          3          3          0
  rounding         :       0.06       0.00       1620          5          5
  shiftandpropagate:       0.00       0.00          0          0          0
  shifting         :       0.14       0.00        368          1          0
  simplerounding   :       0.00       0.00       1742          6          0
  subnlp           :       0.00       0.00          0          0          0
  trivial          :       0.00       0.00          2          0          0
  trivialnegation  :       0.00       0.00          0          0          0
  trustregion      :       0.00       0.00          0          0          0
  trysol           :       0.00       0.00          0          0          0
  twoopt           :       0.00       0.00          0          0          0
  undercover       :       0.00       0.00          0          0          0
  vbounds          :       0.00       0.00          0          0          0
  veclendiving     :       0.02       0.00          4          0          0
  zeroobj          :       0.00       0.00          0          0          0
  zirounding       :       0.14       0.00       1346        424          1
  other solutions  :          -          -          -          0          -
LP                 :       Time      Calls Iterations  Iter/call   Iter/sec  Time-0-It Calls-0-It    ItLimit
  primal LP        :       1.65        135          0       0.00       0.00       1.65        135
  dual LP          :      14.01       2864     112259      39.24    8011.47       0.00          3
  lex dual LP      :       0.00          0          0       0.00          -
  barrier LP       :       0.00          0          0       0.00          -       0.00          0
  resolve instable :       0.00          0          0       0.00          -
  diving/probing LP:       1.00        180       8182      45.46    8173.58
  strong branching :       5.19        235      51114     217.51    9842.87          -          -          0
    (at root node) :          -         47      21725     462.23          -
  conflict analysis:       0.11         94        914       9.72    8353.29
B&B Tree           :
  number of runs   :          1
  nodes            :       2476 (1346 internal, 1130 leaves)
  feasible leaves  :          5
  infeas. leaves   :          2
  objective leaves :       1123
  nodes (total)    :       2476 (1346 internal, 1130 leaves)
  nodes left       :          0
  max depth        :         36
  max depth (total):         36
  backtracks       :        670 (27.1%)
  early backtracks :          0 (0.0%)
  nodes exc. ref.  :          0 (0.0%)
  delayed cutoffs  :          0
  repropagations   :          6 (19 domain reductions, 0 cutoffs)
  avg switch length:       4.20
  switching time   :       1.85
Root Node          :
  First LP value   : -9.31638852056255e+02
  First LP Iters   :       1104 (33716.10 Iter/sec)
  First LP Time    :       0.03
  Final Dual Bound : -7.32029259365170e+02
  Final Root Iters :       2549
  Root LP Estimate : +9.27707701169184e+01
Solution           :
  Solutions found  :        460 (19 improvements)
  First Solution   : +3.17358514305300e+03   (in run 1, after 1 nodes, 0.04 seconds, depth 36, found by <locks>)
  Gap First Sol.   :   infinite
  Gap Last Sol.    :     267.54 %
  Primal Bound     : -1.32873136947000e+02   (in run 1, after 545 nodes, 11.39 seconds, depth 21, found by <relaxation>)
  Dual Bound       : -1.32873136947000e+02
  Gap              :       0.00 %
Integrals          :      Total       Avg%
  primal-dual      :    2180.15      76.75
  primal-ref       :          -          - (not evaluated)
  dual-ref         :          -          - (not evaluated)
written solution information to file <results/final_miplib_symretope_if_extended_generating_set_cpx_v802__settings_final_nopeek_norelabel_extend_norestarts__0__qiu.mps.gz.sol>
@04 1686649354
